SCIP version 8.0.0 [precision: 8 byte] [memory: block] [mode: optimized] [LP solver: SoPlex 6.0.0] [GitHash: a740f0891e]
Copyright (C) 2002-2021 Konrad-Zuse-Zentrum fuer Informationstechnik Berlin (ZIB)

External libraries: 
  SoPlex 6.0.0         Linear Programming Solver developed at Zuse Institute Berlin (soplex.zib.de) [GitHash: 71a5873d]
  CppAD 20180000.0     Algorithmic Differentiation of C++ algorithms developed by B. Bell (github.com/coin-or/CppAD)
  ZLIB 1.2.11          General purpose compression library by J. Gailly and M. Adler (zlib.net)
  GMP 6.2.1            GNU Multiple Precision Arithmetic Library developed by T. Granlund (gmplib.org)
  ZIMPL 3.5.1          Zuse Institute Mathematical Programming Language developed by T. Koch (zimpl.zib.de)
  AMPL/MP 4e2d45c4     AMPL .nl file reader library (github.com/ampl/mp)
  PaPILO 2.0.0         parallel presolve for integer and linear optimization (github.com/scipopt/papilo) [GitHash: 76cafc1]
  bliss 0.73p          Computing Graph Automorphism Groups by T. Junttila and P. Kaski (www.tcs.hut.fi/Software/bliss/)
  Ipopt 3.13.2         Interior Point Optimizer developed by A. Waechter et.al. (github.com/coin-or/Ipopt)

user parameter file <scip.set> not found - using default parameters

read problem <../modeles/3_24.lp>
============

original problem has 150 variables (72 bin, 0 int, 0 impl, 78 cont) and 85 constraints

solve problem
=============

presolving:
(round 1, fast)       3 del vars, 0 del conss, 0 add conss, 156 chg bounds, 0 chg sides, 0 chg coeffs, 0 upgd conss, 0 impls, 3 clqs
(round 2, fast)       3 del vars, 0 del conss, 0 add conss, 156 chg bounds, 0 chg sides, 66 chg coeffs, 0 upgd conss, 0 impls, 3 clqs
   (0.0s) running MILP presolver
   (0.0s) MILP presolver (2 rounds): 0 aggregations, 20 fixings, 0 bound changes
(round 3, medium)     23 del vars, 0 del conss, 0 add conss, 156 chg bounds, 0 chg sides, 66 chg coeffs, 0 upgd conss, 0 impls, 3 clqs
(round 4, fast)       23 del vars, 10 del conss, 0 add conss, 156 chg bounds, 0 chg sides, 66 chg coeffs, 0 upgd conss, 0 impls, 3 clqs
(round 5, exhaustive) 23 del vars, 10 del conss, 0 add conss, 156 chg bounds, 0 chg sides, 66 chg coeffs, 9 upgd conss, 0 impls, 3 clqs
(round 6, exhaustive) 49 del vars, 10 del conss, 0 add conss, 158 chg bounds, 0 chg sides, 66 chg coeffs, 9 upgd conss, 554 impls, 66 clqs
(round 7, fast)       49 del vars, 15 del conss, 0 add conss, 158 chg bounds, 0 chg sides, 68 chg coeffs, 9 upgd conss, 554 impls, 66 clqs
   (0.0s) running MILP presolver
   (0.0s) MILP presolver (3 rounds): 0 aggregations, 14 fixings, 0 bound changes
(round 8, medium)     63 del vars, 17 del conss, 0 add conss, 158 chg bounds, 0 chg sides, 68 chg coeffs, 9 upgd conss, 554 impls, 66 clqs
(round 9, fast)       63 del vars, 23 del conss, 0 add conss, 158 chg bounds, 0 chg sides, 68 chg coeffs, 9 upgd conss, 554 impls, 66 clqs
(round 10, exhaustive) 63 del vars, 23 del conss, 0 add conss, 158 chg bounds, 0 chg sides, 68 chg coeffs, 15 upgd conss, 554 impls, 66 clqs
(round 11, medium)     63 del vars, 23 del conss, 0 add conss, 159 chg bounds, 0 chg sides, 68 chg coeffs, 15 upgd conss, 558 impls, 66 clqs
(round 12, fast)       63 del vars, 23 del conss, 0 add conss, 159 chg bounds, 0 chg sides, 69 chg coeffs, 15 upgd conss, 558 impls, 66 clqs
   (0.0s) probing cycle finished: starting next cycle
(round 13, exhaustive) 63 del vars, 23 del conss, 0 add conss, 162 chg bounds, 0 chg sides, 69 chg coeffs, 15 upgd conss, 994 impls, 204 clqs
(round 14, fast)       63 del vars, 23 del conss, 0 add conss, 162 chg bounds, 0 chg sides, 72 chg coeffs, 15 upgd conss, 994 impls, 204 clqs
   (0.0s) probing cycle finished: starting next cycle
   (0.0s) symmetry computation started: requiring (bin +, int -, cont +), (fixed: bin -, int +, cont -)
   (0.0s) symmetry computation finished: 2 generators found (max: 1500, log10 of symmetry group size: 0.8)
(round 15, exhaustive) 63 del vars, 23 del conss, 1 add conss, 162 chg bounds, 0 chg sides, 72 chg coeffs, 15 upgd conss, 1006 impls, 204 clqs
presolving (16 rounds: 16 fast, 9 medium, 6 exhaustive):
 63 deleted vars, 23 deleted constraints, 1 added constraints, 162 tightened bounds, 0 added holes, 0 changed sides, 72 changed coefficients
 1006 implications, 204 cliques
presolved problem has 87 variables (42 bin, 0 int, 0 impl, 45 cont) and 56 constraints
      6 constraints of type <varbound>
      3 constraints of type <setppc>
     46 constraints of type <linear>
      1 constraints of type <orbitope>
Presolving Time: 0.02

 time | node  | left  |LP iter|LP it/n|mem/heur|mdpt |vars |cons |rows |cuts |sepa|confs|strbr|  dualbound   | primalbound  |  gap   | compl. 
p 0.0s|     1 |     0 |     4 |     - |  clique|   0 |  87 |  56 |  55 |   0 |  0 |   0 |   0 |-1.050062e+01 |-1.000000e+00 | 950.06%| unknown
  0.0s|     1 |     0 |    38 |     - |  3176k |   0 |  87 |  56 |  55 |   0 |  0 |   0 |   0 |-1.714286e+00 |-1.000000e+00 |  71.43%| unknown
  0.0s|     1 |     0 |    38 |     - |  3176k |   0 |  87 |  56 |  55 |   0 |  0 |   0 |   0 |-1.714286e+00 |-1.000000e+00 |  71.43%| unknown
  0.0s|     1 |     0 |    41 |     - |  3215k |   0 |  87 |  56 |  53 |   1 |  1 |   0 |   0 |-1.714286e+00 |-1.000000e+00 |  71.43%| unknown
  0.0s|     1 |     0 |    43 |     - |  3288k |   0 |  87 |  56 |  54 |   2 |  2 |   0 |   0 |-1.714286e+00 |-1.000000e+00 |  71.43%| unknown
r 0.0s|     1 |     0 |    43 |     - |shifting|   0 |  87 |  56 |  54 |   2 |  2 |   0 |   0 |-1.714286e+00 |-1.166667e+00 |  46.94%| unknown
  0.0s|     1 |     0 |    47 |     - |  3298k |   0 |  87 |  56 |  56 |   4 |  3 |   0 |   0 |-1.714286e+00 |-1.166667e+00 |  46.94%| unknown
r 0.0s|     1 |     0 |    49 |     - |shifting|   0 |  87 |  56 |  56 |   4 |  3 |   0 |   0 |-1.714286e+00 |-1.333333e+00 |  28.57%| unknown
  0.0s|     1 |     0 |    49 |     - |  3299k |   0 |  87 |  56 |  56 |   4 |  3 |   0 |   0 |-1.714286e+00 |-1.333333e+00 |  28.57%| unknown
  0.0s|     1 |     0 |    50 |     - |  3305k |   0 |  87 |  56 |  54 |   5 |  4 |   0 |   0 |-1.714286e+00 |-1.333333e+00 |  28.57%| unknown
r 0.0s|     1 |     0 |    50 |     - |shifting|   0 |  87 |  56 |  54 |   5 |  4 |   0 |   0 |-1.714286e+00 |-1.333333e+00 |  28.57%| unknown
  0.0s|     1 |     0 |    51 |     - |  3319k |   0 |  87 |  56 |  55 |   6 |  5 |   0 |   0 |-1.714286e+00 |-1.333333e+00 |  28.57%| unknown
  0.0s|     1 |     0 |    52 |     - |  3319k |   0 |  87 |  56 |  56 |   7 |  6 |   0 |   0 |-1.714286e+00 |-1.333333e+00 |  28.57%| unknown
  0.0s|     1 |     0 |    53 |     - |  3319k |   0 |  87 |  56 |  57 |   8 |  7 |   0 |   0 |-1.714286e+00 |-1.333333e+00 |  28.57%| unknown
  0.0s|     1 |     0 |    54 |     - |  3319k |   0 |  87 |  56 |  58 |   9 |  8 |   0 |   0 |-1.714286e+00 |-1.333333e+00 |  28.57%| unknown
 time | node  | left  |LP iter|LP it/n|mem/heur|mdpt |vars |cons |rows |cuts |sepa|confs|strbr|  dualbound   | primalbound  |  gap   | compl. 
  0.0s|     1 |     0 |    55 |     - |  3325k |   0 |  87 |  56 |  59 |  10 |  9 |   0 |   0 |-1.714286e+00 |-1.333333e+00 |  28.57%| unknown
  0.0s|     1 |     0 |    56 |     - |  3331k |   0 |  87 |  56 |  60 |  11 | 10 |   0 |   0 |-1.714286e+00 |-1.333333e+00 |  28.57%| unknown
  0.0s|     1 |     0 |    57 |     - |  3337k |   0 |  87 |  56 |  61 |  12 | 11 |   0 |   0 |-1.714286e+00 |-1.333333e+00 |  28.57%| unknown
L 0.0s|     1 |     0 |    85 |     - |    rens|   0 |  87 |  50 |  61 |  12 | 13 |   0 |   0 |-1.714286e+00 |-1.714286e+00 |   0.00%| unknown
  0.0s|     1 |     0 |    85 |     - |  3347k |   0 |  87 |  50 |  61 |  12 | 13 |   0 |   0 |-1.714286e+00 |-1.714286e+00 |   0.00%| unknown

SCIP Status        : problem is solved [optimal solution found]
Solving Time (sec) : 0.05
Solving Nodes      : 1
Primal Bound       : -1.71428571428571e+00 (12 solutions)
Dual Bound         : -1.71428571428571e+00
Gap                : 0.00 %

primal solution (original space):
=================================

objective value:                    -1.71428571428571
y_3,8_                                              1 	(obj:0)
y_1,9_                                              1 	(obj:0)
y_2,10_                                             1 	(obj:0)
x_3_                               -0.666666666666667 	(obj:1)
x_2_                                             -0.5 	(obj:1)
t_1,9_                              0.285714285714284 	(obj:0)
t_3,9_                                              1 	(obj:0)
x_1_                               -0.547619047619047 	(obj:1)
t_1,10_                             0.714285714285716 	(obj:0)
t_2,10_                                             1 	(obj:0)

Statistics
==========

SCIP Status        : problem is solved [optimal solution found]
Total Time         :       0.05
  solving          :       0.05
  presolving       :       0.02 (included in solving)
  reading          :       0.00
  copying          :       0.00 (1 #copies) (minimal 0.00, maximal 0.00, average 0.00)
Original Problem   :
  Problem name     : ../modeles/3_24.lp
  Variables        : 150 (72 binary, 0 integer, 0 implicit integer, 78 continuous)
  Constraints      : 85 initial, 85 maximal
  Objective        : minimize, 3 non-zeros (abs.min = 1, abs.max = 1)
Presolved Problem  :
  Problem name     : t_../modeles/3_24.lp
  Variables        : 87 (42 binary, 0 integer, 0 implicit integer, 45 continuous)
  Constraints      : 56 initial, 56 maximal
  Objective        : minimize, 42 non-zeros (abs.min = 0.166667, abs.max = 1.16667)
  Nonzeros         : 342 constraint, 36 clique table
Presolvers         :   ExecTime  SetupTime  Calls  FixedVars   AggrVars   ChgTypes  ChgBounds   AddHoles    DelCons    AddCons   ChgSides   ChgCoefs
  boundshift       :       0.00       0.00      0          0          0          0          0          0          0          0          0          0
  convertinttobin  :       0.00       0.00      0          0          0          0          0          0          0          0          0          0
  domcol           :       0.00       0.00      4          0          0          0          0          0          0          0          0          0
  dualagg          :       0.00       0.00      0          0          0          0          0          0          0          0          0          0
  dualcomp         :       0.00       0.00      4          0          0          0          0          0          0          0          0          0
  dualinfer        :       0.00       0.00      0          0          0          0          0          0          0          0          0          0
  dualsparsify     :       0.00       0.00      1          0          0          0          0          0          0          0          0          0
  gateextraction   :       0.00       0.00      0          0          0          0          0          0          0          0          0          0
  implics          :       0.00       0.00      9          0          0          0          1          0          0          0          0          0
  inttobinary      :       0.00       0.00      0          0          0          0          0          0          0          0          0          0
  milp             :       0.00       0.00      2         34          0          0          0          0          0          0          0          0
  qpkktref         :       0.00       0.00      0          0          0          0          0          0          0          0          0          0
  redvub           :       0.00       0.00      0          0          0          0          0          0          0          0          0          0
  sparsify         :       0.00       0.00      2          0          0          0          0          0          0          0          0          0
  stuffing         :       0.00       0.00      0          0          0          0          0          0          0          0          0          0
  trivial          :       0.00       0.00     16          0          0          0          0          0          0          0          0          0
  tworowbnd        :       0.00       0.00      0          0          0          0          0          0          0          0          0          0
  dualfix          :       0.00       0.00     16          0          0          0          0          0          0          0          0          0
  genvbounds       :       0.00       0.00      0          0          0          0          0          0          0          0          0          0
  probing          :       0.01       0.00      3         26          0          0          5          0          0          0          0          0
  pseudoobj        :       0.00       0.00      0          0          0          0          0          0          0          0          0          0
  symmetry         :       0.00       0.00      1          0          0          0          0          0          0          1          0          0
  vbounds          :       0.00       0.00      3          0          0          0          0          0          0          0          0          0
  varbound         :       0.00       0.00     15          0          0          0          0          0          6          0          0          4
  setppc           :       0.00       0.00     23          0          0          0          0          0          0          0          0          0
  linear           :       0.00       0.00     22          0          3          0        156          0         17          0          0         68
  orbitope         :       0.00       0.00      1          0          0          0          0          0          0          0          0          0
  benders          :       0.00       0.00      0          0          0          0          0          0          0          0          0          0
  components       :       0.00       0.00      1          0          0          0          0          0          0          0          0          0
  root node        :          -          -      -          6          -          -         12          -          -          -          -          -
Constraints        :     Number  MaxNumber  #Separate #Propagate    #EnfoLP    #EnfoRelax  #EnfoPS    #Check   #ResProp    Cutoffs    DomReds       Cuts    Applied      Conss   Children
  benderslp        :          0          0          0          0          0          0          0         33          0          0          0          0          0          0          0
  integral         :          0          0          0          0          0          0          0         33          0          0          0          0          0          0          0
  varbound         :          6          6         12        591          0          0          0         26          0          0          6          0          0          0          0
  setppc           :          3          3         12        650          0          0          0         27          0          0          0          0          0          0          0
  linear           :         46         46         12        652          0          0          0         17          0         34          0          2          0          0          0
  orbitope         :          1          1          0         95          0          0          0         12          0          0          0          0          0          0          0
  benders          :          0          0          0          0          0          0          0         13          0          0          0          0          0          0          0
  countsols        :          0          0          0          0          0          0          0         13          0          0          0          0          0          0          0
  components       :          0          0          0          0          0          0          0          0          0          0          0          0          0          0          0
Constraint Timings :  TotalTime  SetupTime   Separate  Propagate     EnfoLP     EnfoPS     EnfoRelax   Check    ResProp    SB-Prop
  benderslp        :       0.00       0.00       0.00       0.00       0.00       0.00       0.00       0.00       0.00       0.00
  integral         :       0.00       0.00       0.00       0.00       0.00       0.00       0.00       0.00       0.00       0.00
  varbound         :       0.00       0.00       0.00       0.00       0.00       0.00       0.00       0.00       0.00       0.00
  setppc           :       0.00       0.00       0.00       0.00       0.00       0.00       0.00       0.00       0.00       0.00
  linear           :       0.00       0.00       0.00       0.00       0.00       0.00       0.00       0.00       0.00       0.00
  orbitope         :       0.00       0.00       0.00       0.00       0.00       0.00       0.00       0.00       0.00       0.00
  benders          :       0.00       0.00       0.00       0.00       0.00       0.00       0.00       0.00       0.00       0.00
  countsols        :       0.00       0.00       0.00       0.00       0.00       0.00       0.00       0.00       0.00       0.00
  components       :       0.00       0.00       0.00       0.00       0.00       0.00       0.00       0.00       0.00       0.00
Propagators        : #Propagate   #ResProp    Cutoffs    DomReds
  dualfix          :          3          0          0          0
  genvbounds       :          0          0          0          0
  nlobbt           :          0          0          0          0
  obbt             :          0          0          0          0
  probing          :          0          0          0          0
  pseudoobj        :         20          0          0          0
  redcost          :         15          0          0          6
  rootredcost      :          0          0          0          0
  symmetry         :          0          0          0          0
  vbounds          :         66          0          0          0
Propagator Timings :  TotalTime  SetupTime   Presolve  Propagate    ResProp    SB-Prop
  dualfix          :       0.00       0.00       0.00       0.00       0.00       0.00
  genvbounds       :       0.00       0.00       0.00       0.00       0.00       0.00
  nlobbt           :       0.00       0.00       0.00       0.00       0.00       0.00
  obbt             :       0.00       0.00       0.00       0.00       0.00       0.00
  probing          :       0.01       0.00       0.01       0.00       0.00       0.00
  pseudoobj        :       0.00       0.00       0.00       0.00       0.00       0.00
  redcost          :       0.00       0.00       0.00       0.00       0.00       0.00
  rootredcost      :       0.00       0.00       0.00       0.00       0.00       0.00
  symmetry         :       0.00       0.00       0.00       0.00       0.00       0.00
  vbounds          :       0.00       0.00       0.00       0.00       0.00       0.00
Orbital fixing     :
  vars fixed to 0  :          0
  vars fixed to 1  :          0
Conflict Analysis  :       Time      Calls    Success    DomReds  Conflicts   Literals    Reconvs ReconvLits   Dualrays   Nonzeros   LP Iters   (pool size: [--,--])
  propagation      :       0.00          0          0          -          0        0.0          0        0.0          -          -          -
  infeasible LP    :       0.00          0          0          -          0        0.0          0        0.0          0        0.0          0
  bound exceed. LP :       0.00          2          0          -          0        0.0          0        0.0          0        0.0          0
  strong branching :       0.00          0          0          -          0        0.0          0        0.0          -          -          0
  pseudo solution  :       0.00          0          0          -          0        0.0          0        0.0          -          -          -
  applied globally :       0.00          -          -          0          0        0.0          -          -          0          -          -
  applied locally  :          -          -          -          0          0        0.0          -          -          0          -          -
Separators         :   ExecTime  SetupTime      Calls    Cutoffs    DomReds       Cuts    Applied      Conss
  cut pool         :       0.00                    24          -          -         50          -          -    (maximal pool size: 118)
  aggregation      :       0.00       0.00         12          0          0         79         11          0
  > cmir           :          -          -          -          -          -          -         11          -
  > flowcover      :          -          -          -          -          -          -          0          -
  > knapsackcover  :          -          -          -          -          -          -          0          -
  cgmip            :       0.00       0.00          0          0          0          0          0          0
  clique           :       0.00       0.00         12          0          0          3          0          0
  closecuts        :       0.00       0.00          0          0          0          0          0          0
  convexproj       :       0.00       0.00          0          0          0          0          0          0
  disjunctive      :       0.00       0.00          0          0          0          0          0          0
  eccuts           :       0.00       0.00          0          0          0          0          0          0
  gauge            :       0.00       0.00          0          0          0          0          0          0
  gomory           :       0.00       0.00         10          0          0         22          1          0
  > gomorymi       :          -          -          -          -          -          -          1          -
  > strongcg       :          -          -          -          -          -          -          0          -
  impliedbounds    :       0.00       0.00         12          0          0         13          0          0
  interminor       :       0.00       0.00          0          0          0          0          0          0
  intobj           :       0.00       0.00          0          0          0          0          0          0
  mcf              :       0.00       0.00          1          0          0          0          0          0
  minor            :       0.00       0.00          0          0          0          0          0          0
  mixing           :       0.00       0.00         12          0          0          0          0          0
  oddcycle         :       0.00       0.00          0          0          0          0          0          0
  rapidlearning    :       0.00       0.00          0          0          0          0          0          0
  rlt              :       0.00       0.00         10          0          0          0          0          0
  zerohalf         :       0.00       0.00         12          0          0          1          0          0
Cutselectors       :   ExecTime  SetupTime
  hybrid           :       0.00       0.00
Pricers            :   ExecTime  SetupTime      Calls       Vars
  problem variables:       0.00          -          0          0
Branching Rules    :   ExecTime  SetupTime   BranchLP  BranchExt   BranchPS    Cutoffs    DomReds       Cuts      Conss   Children
  allfullstrong    :       0.00       0.00          0          0          0          0          0          0          0          0
  cloud            :       0.00       0.00          0          0          0          0          0          0          0          0
  distribution     :       0.00       0.00          0          0          0          0          0          0          0          0
  fullstrong       :       0.00       0.00          0          0          0          0          0          0          0          0
  inference        :       0.00       0.00          0          0          0          0          0          0          0          0
  leastinf         :       0.00       0.00          0          0          0          0          0          0          0          0
  lookahead        :       0.00       0.00          0          0          0          0          0          0          0          0
  mostinf          :       0.00       0.00          0          0          0          0          0          0          0          0
  multaggr         :       0.00       0.00          0          0          0          0          0          0          0          0
  nodereopt        :       0.00       0.00          0          0          0          0          0          0          0          0
  pscost           :       0.00       0.00          0          0          0          0          0          0          0          0
  random           :       0.00       0.00          0          0          0          0          0          0          0          0
  relpscost        :       0.00       0.00          0          0          0          0          0          0          0          0
  vanillafullstrong:       0.00       0.00          0          0          0          0          0          0          0          0
Primal Heuristics  :   ExecTime  SetupTime      Calls      Found       Best
  LP solutions     :       0.00          -          -          0          0
  relax solutions  :       0.00          -          -          0          0
  pseudo solutions :       0.00          -          -          0          0
  strong branching :       0.00          -          -          0          0
  actconsdiving    :       0.00       0.00          0          0          0
  adaptivediving   :       0.00       0.00          0          0          0
  alns             :       0.00       0.00          0          0          0
  bound            :       0.00       0.00          0          0          0
  clique           :       0.00       0.00          1          1          1
  coefdiving       :       0.00       0.00          0          0          0
  completesol      :       0.00       0.00          0          0          0
  conflictdiving   :       0.00       0.00          0          0          0
  crossover        :       0.00       0.00          0          0          0
  dins             :       0.00       0.00          0          0          0
  distributiondivin:       0.00       0.00          0          0          0
  dps              :       0.00       0.00          0          0          0
  dualval          :       0.00       0.00          0          0          0
  farkasdiving     :       0.00       0.00          0          0          0
  feaspump         :       0.00       0.00          0          0          0
  fixandinfer      :       0.00       0.00          0          0          0
  fracdiving       :       0.00       0.00          0          0          0
  gins             :       0.00       0.00          0          0          0
  guideddiving     :       0.00       0.00          0          0          0
  indicator        :       0.00       0.00          0          0          0
  intdiving        :       0.00       0.00          0          0          0
  intshifting      :       0.00       0.00          1          0          0
  linesearchdiving :       0.00       0.00          0          0          0
  localbranching   :       0.00       0.00          0          0          0
  locks            :       0.00       0.00          1          0          0
  lpface           :       0.00       0.00          0          0          0
  mpec             :       0.00       0.00          0          0          0
  multistart       :       0.00       0.00          0          0          0
  mutation         :       0.00       0.00          0          0          0
  nlpdiving        :       0.00       0.00          0          0          0
  objpscostdiving  :       0.00       0.00          0          0          0
  octane           :       0.00       0.00          0          0          0
  ofins            :       0.00       0.00          0          0          0
  oneopt           :       0.00       0.00          4          0          0
  padm             :       0.00       0.00          0          0          0
  proximity        :       0.00       0.00          0          0          0
  pscostdiving     :       0.00       0.00          0          0          0
  randrounding     :       0.00       0.00         12          0          0
  rens             :       0.00       0.00          1          1          1
  reoptsols        :       0.00       0.00          0          0          0
  repair           :       0.00       0.00          0          0          0
  rins             :       0.00       0.00          0          0          0
  rootsoldiving    :       0.00       0.00          0          0          0
  rounding         :       0.00       0.00         12          0          0
  shiftandpropagate:       0.00       0.00          0          0          0
  shifting         :       0.00       0.00         12         10          3
  simplerounding   :       0.00       0.00          0          0          0
  subnlp           :       0.00       0.00          0          0          0
  trivial          :       0.00       0.00          2          0          0
  trivialnegation  :       0.00       0.00          0          0          0
  trustregion      :       0.00       0.00          0          0          0
  trysol           :       0.00       0.00          0          0          0
  twoopt           :       0.00       0.00          0          0          0
  undercover       :       0.00       0.00          0          0          0
  vbounds          :       0.00       0.00          0          0          0
  veclendiving     :       0.00       0.00          0          0          0
  zeroobj          :       0.00       0.00          0          0          0
  zirounding       :       0.00       0.00          1          0          0
  other solutions  :          -          -          -          0          -
Diving (single)    :      Calls      Nodes   LP Iters Backtracks  Conflicts   MinDepth   MaxDepth   AvgDepth  RoundSols  NLeafSols  MinSolDpt  MaxSolDpt  AvgSolDpt
  actconsdiving    :          0          -          -          -          -          -          -          -          -          -          -          -          -
  coefdiving       :          0          -          -          -          -          -          -          -          -          -          -          -          -
  conflictdiving   :          0          -          -          -          -          -          -          -          -          -          -          -          -
  distributiondivin:          0          -          -          -          -          -          -          -          -          -          -          -          -
  farkasdiving     :          0          -          -          -          -          -          -          -          -          -          -          -          -
  fracdiving       :          0          -          -          -          -          -          -          -          -          -          -          -          -
  guideddiving     :          0          -          -          -          -          -          -          -          -          -          -          -          -
  linesearchdiving :          0          -          -          -          -          -          -          -          -          -          -          -          -
  pscostdiving     :          0          -          -          -          -          -          -          -          -          -          -          -          -
  veclendiving     :          0          -          -          -          -          -          -          -          -          -          -          -          -
Diving (adaptive)  :      Calls      Nodes   LP Iters Backtracks  Conflicts   MinDepth   MaxDepth   AvgDepth  RoundSols  NLeafSols  MinSolDpt  MaxSolDpt  AvgSolDpt
  actconsdiving    :          0          -          -          -          -          -          -          -          -          -          -          -          -
  coefdiving       :          0          -          -          -          -          -          -          -          -          -          -          -          -
  conflictdiving   :          0          -          -          -          -          -          -          -          -          -          -          -          -
  distributiondivin:          0          -          -          -          -          -          -          -          -          -          -          -          -
  farkasdiving     :          0          -          -          -          -          -          -          -          -          -          -          -          -
  fracdiving       :          0          -          -          -          -          -          -          -          -          -          -          -          -
  guideddiving     :          0          -          -          -          -          -          -          -          -          -          -          -          -
  linesearchdiving :          0          -          -          -          -          -          -          -          -          -          -          -          -
  pscostdiving     :          0          -          -          -          -          -          -          -          -          -          -          -          -
  veclendiving     :          0          -          -          -          -          -          -          -          -          -          -          -          -
Neighborhoods      :      Calls  SetupTime  SolveTime SolveNodes       Sols       Best       Exp3  EpsGreedy        UCB TgtFixRate  Opt  Inf Node Stal  Sol  Usr Othr Actv
  rens             :          0       0.00       0.00          0          0          0    0.00000   -1.00000    1.00000      0.900    0    0    0    0    0    0    0    1
  rins             :          0       0.00       0.00          0          0          0    0.00000   -1.00000    1.00000      0.900    0    0    0    0    0    0    0    1
  mutation         :          0       0.00       0.00          0          0          0    0.00000   -1.00000    1.00000      0.900    0    0    0    0    0    0    0    1
  localbranching   :          0       0.00       0.00          0          0          0    0.00000   -1.00000    1.00000      0.900    0    0    0    0    0    0    0    1
  crossover        :          0       0.00       0.00          0          0          0    0.00000   -1.00000    1.00000      0.900    0    0    0    0    0    0    0    1
  proximity        :          0       0.00       0.00          0          0          0    0.00000   -1.00000    1.00000      0.900    0    0    0    0    0    0    0    1
  zeroobjective    :          0       0.00       0.00          0          0          0    0.00000   -1.00000    1.00000      0.900    0    0    0    0    0    0    0    1
  dins             :          0       0.00       0.00          0          0          0    0.00000   -1.00000    1.00000      0.900    0    0    0    0    0    0    0    1
  trustregion      :          0       0.00       0.00          0          0          0    0.00000   -1.00000    1.00000      0.900    0    0    0    0    0    0    0    0
LP                 :       Time      Calls Iterations  Iter/call   Iter/sec  Time-0-It Calls-0-It    ItLimit
  primal LP        :       0.00          0          0       0.00          -       0.00          0
  dual LP          :       0.00         16         48       3.69          -       0.00          3
  lex dual LP      :       0.00          0          0       0.00          -
  barrier LP       :       0.00          0          0       0.00          -       0.00          0
  resolve instable :       0.00          0          0       0.00          -
  diving/probing LP:       0.00          3         37      12.33          -
  strong branching :       0.00          0          0       0.00          -          -          -          0
    (at root node) :          -          0          0       0.00          -
  conflict analysis:       0.00          0          0       0.00          -
B&B Tree           :
  number of runs   :          1
  nodes            :          1 (0 internal, 1 leaves)
  feasible leaves  :          0
  infeas. leaves   :          0
  objective leaves :          0
  nodes (total)    :          1 (0 internal, 1 leaves)
  nodes left       :          0
  max depth        :          0
  max depth (total):          0
  backtracks       :          0 (0.0%)
  early backtracks :          0 (0.0%)
  nodes exc. ref.  :          0 (0.0%)
  delayed cutoffs  :          0
  repropagations   :          0 (0 domain reductions, 0 cutoffs)
  avg switch length:       2.00
  switching time   :       0.00
Estim. Tree Size   :          1
Estimation Tree    : 1 nodes (1 visited, 0 internal, 1 leaves, 0 open), weight: 1.0000 completed 1.0000
Estimations        :      estim      value      trend resolution     smooth
  wbe              :          1          -          -          -          -
  tree-profile     :         -1          -          -          -          -
  gap              :          1    1.00000    1.00000          1          1
  tree-weight      :          1    1.00000    1.00000          1          1
  leaf-frequency   :          1    0.50000    1.00000          1          1
  ssg              :          1    0.00000   -1.00000          1          1
  open-nodes       :          1    0.00000    0.00000          1          1
Root Node          :
  First LP value   : -1.71428571428571e+00
  First LP Iters   :         29 (190789.47 Iter/sec)
  First LP Time    :       0.00
  Final Dual Bound : -1.71428571428571e+00
  Final Root Iters :         48
  Root LP Estimate :                     -
Solution           :
  Solutions found  :         12 (5 improvements)
  First Solution   : -1.00000000000000e+00   (in run 1, after 1 nodes, 0.02 seconds, depth 5, found by <clique>)
  Gap First Sol.   :     950.06 %
  Gap Last Sol.    :       0.00 %
  Primal Bound     : -1.71428571428571e+00   (in run 1, after 1 nodes, 0.05 seconds, depth 0, found by <rens>)
  Dual Bound       : -1.71428571428571e+00
  Gap              :       0.00 %
Integrals          :      Total       Avg%
  primal-dual      :       2.74      57.08
  primal-ref       :          -          - (not evaluated)
  dual-ref         :          -          - (not evaluated)
